p cnf 2139 2109
c ind 884 885 886 887 888 889 890 891 892 893 0
c ind 894 895 896 897 751 898 899 900 901 776 0
c ind 777 902 778 779 968 903 969 904 970 971 0
c ind 972 928 905 906 929 930 931 932 933 934 0
c ind 935 936 937 907 938 700 939 701 702 940 0
c ind 941 703 942 943 944 704 945 946 705 947 0
c ind 908 706 909 707 910 708 709 911 912 913 0
c ind 914 915 773 710 916 917 918 919 920 711 0
c ind 921 922 923 924 712 925 713 714 926 927 0
c ind 715 948 949 950 951 952 953 954 955 956 0
c ind 957 958 959 960 961 962 963 964 965 966 0
c ind 967 752 753 754 755 756 757 758 759 760 0
c ind 774 761 762 763 764 765 766 767 768 769 0
c ind 770 771 772 1257 1258 1259 1260 1261 1262 1263 0
c ind 1264 1265 1266 1267 1268 1269 1270 1271 1272 1273 0
c ind 1274 1275 1276 1277 1278 1279 1280 821 822 823 0
c ind 824 749 825 826 827 828 829 830 831 832 0
c ind 833 834 835 836 837 838 839 840 841 842 0
c ind 843 844 845 846 847 848 849 850 851 852 0
c ind 853 854 855 856 857 858 859 860 861 1044 0
c ind 1045 1046 1047 1048 1049 1050 1051 1052 1053 1054 0
c ind 1055 1056 1057 1058 1059 1060 1061 1062 1063 1064 0
c ind 1065 1066 1067 1068 1069 1070 1071 1072 1073 1074 0
c ind 1075 1076 1077 750 1078 1079 1080 1081 1082 1083 0
c ind 1084 780 781 782 783 784 785 786 787 788 0
c ind 789 790 791 792 793 794 795 796 797 798 0
c ind 799 800 801 802 803 804 805 806 807 808 0
c ind 809 810 811 775 812 813 814 815 816 817 0
c ind 818 819 820 862 863 864 865 866 867 868 0
c ind 869 870 871 872 873 874 875 876 877 878 0
c ind 879 880 881 882 883 0
556 -557 647 0
556 -557 582 0
-556 557 0
-582 -647 -556 0
557 -558 -572 -581 0
-557 558 0
-557 572 0
-557 581 0
558 559 -563 0
-558 -559 0
-558 563 0
-560 -945 559 0
-562 -945 559 0
-561 -945 559 0
-559 945 0
-559 560 561 562 0
560 -911 912 913 0
-560 911 0
-560 -913 0
-560 -912 0
561 911 914 915 0
-561 -911 0
-561 -915 0
-561 -914 0
562 908 -946 947 0
-562 -908 0
-562 946 0
-562 -947 0
563 564 568 -763 -951 0
-563 951 0
-563 -568 0
-563 763 0
-563 -564 0
565 764 564 765 766 0
-564 -565 0
-564 -766 0
-564 -764 0
-564 -765 0
565 566 -769 0
565 566 567 -770 0
-565 -566 0
-565 -567 769 0
-565 769 770 0
566 767 -768 0
-566 -767 0
-566 768 0
567 1259 1260 0
567 1259 1267 1268 0
-567 -1259 0
-567 -1260 -1267 0
-567 -1260 -1268 0
569 952 568 953 954 0
-568 -569 0
-568 -954 0
-568 -952 0
-568 -953 0
569 570 -957 0
569 570 571 -958 0
-569 -570 0
-569 -571 957 0
-569 957 958 0
570 955 -956 0
-570 -955 0
-570 956 0
571 963 964 0
571 755 756 963 0
-571 -963 0
-571 -756 -964 0
-571 -755 -964 0
572 573 -574 0
-572 -573 0
-572 574 0
-751 855 573 856 857 0
-573 -857 0
-573 -856 0
-573 751 0
-573 -855 0
574 575 579 -810 0
574 575 578 -810 0
-574 810 0
-574 -575 0
-578 -579 -574 0
-576 -577 575 -1068 0
-576 -577 575 -1069 0
-575 577 0
-575 576 0
-575 1068 1069 0
576 1071 1072 1073 1074 0
-576 -1074 0
-576 -1073 0
-576 -1071 0
-576 -1072 0
577 -1065 -1066 -1067 1070 0
-577 1067 0
-577 -1070 0
-577 1065 0
-577 1066 0
578 -781 -1079 0
-578 781 0
-578 1079 0
579 -580 -782 783 0
-579 782 0
-579 -783 0
-579 580 0
580 785 -786 -787 788 0
-580 -785 0
-580 -788 0
-580 787 0
-580 786 0
581 -750 -774 0
581 -749 775 0
581 -749 -750 0
581 -774 775 0
750 -775 -581 0
749 774 -581 0
582 583 -603 0
-582 -583 0
-582 603 0
583 -584 1153 0
583 584 -1153 0
-583 -584 -1153 0
-583 584 1153 0
584 599 -810 0
584 585 -589 -810 0
-584 810 0
-584 -585 -599 0
-584 589 -599 0
585 -587 751 -1058 0
585 586 751 1058 0
-585 -751 0
-585 587 -1058 0
-585 -586 1058 0
586 -902 -558 0
-586 902 0
558 -586 0
587 -588 903 0
586 587 588 0
-587 -588 -903 0
-586 -587 588 0
588 842 -844 0
-588 -842 0
-588 844 0
589 -590 598 0
587 589 -590 -596 0
-589 590 0
-587 -589 -598 0
-589 596 -598 0
590 1079 575 0
590 591 575 -592 0
-575 -590 0
-590 592 -1079 0
-590 -591 -1079 0
591 1082 -1084 0
-591 -1082 0
-591 1084 0
592 594 781 0
592 593 -781 0
592 -595 -781 0
-592 -594 781 0
-592 -593 595 -781 0
593 -782 783 0
-593 782 0
-593 -783 0
594 805 -807 0
-594 -805 0
-594 807 0
580 595 -1079 0
-595 1079 0
-580 -595 0
596 597 -855 0
596 597 -856 0
596 597 -857 0
-596 -597 0
-596 855 856 857 0
597 1045 -1047 0
-597 -1045 0
-597 1047 0
597 598 -751 0
598 -751 904 0
-598 751 0
-597 -598 -904 0
599 600 602 0
599 600 906 0
594 599 600 0
-599 -600 0
-594 -599 -602 -906 0
-591 600 -601 -905 0
-600 905 0
591 -600 0
-600 601 0
-592 601 -1079 0
-601 1079 0
592 -601 0
602 781 -1079 0
-602 -781 0
-602 1079 0
603 604 -615 -637 1170 0
603 -604 -615 -637 -1170 0
-603 637 0
-603 604 -1170 0
-603 615 0
-603 -604 1170 0
604 -605 -810 0
604 613 -810 0
-604 810 0
-604 605 -613 0
594 -602 605 -606 0
-594 -602 605 -715 0
602 -605 0
594 -605 606 0
-594 -605 715 0
-591 606 -714 0
591 606 -607 0
-591 -606 714 0
591 -606 607 0
607 608 575 612 0
607 608 575 -611 0
-575 -607 0
-607 -608 0
-607 611 -612 0
608 -610 751 -1058 0
608 609 751 1058 0
-608 -751 0
-608 610 -1058 0
-608 -609 1058 0
609 -711 -558 0
-609 711 0
558 -609 0
-588 610 712 0
588 609 610 0
-588 -610 -712 0
588 -609 -610 0
-596 610 611 0
596 -611 0
-610 -611 0
612 713 -751 0
597 612 -751 0
-612 751 0
-597 -612 -713 0
613 614 -1079 0
606 607 613 0
607 613 614 0
606 613 -1079 0
-607 -613 1079 0
-606 -613 -614 0
579 614 -781 -1079 0
-614 781 0
-614 1079 0
-579 -614 0
615 -635 -626 -721 0
615 616 -626 -635 0
-615 635 0
-615 626 0
-615 -616 721 0
616 617 -810 0
-616 810 0
-616 -617 0
617 623 625 -1079 0
617 618 623 625 0
-617 -625 0
-617 -623 0
-617 -618 1079 0
618 621 575 0
618 -619 -558 575 0
-575 -618 0
558 -618 -621 0
-618 619 -621 0
619 620 751 -775 0
-596 619 620 -775 0
-619 775 0
-619 -620 0
596 -619 -751 0
-588 620 -1058 0
-588 620 -751 0
588 -620 0
-620 751 1058 0
621 622 890 0
597 621 622 0
621 622 751 0
-621 -622 0
-597 -621 -751 -890 0
-620 622 751 -889 0
-596 -620 622 -889 0
620 -622 0
-622 889 0
596 -622 -751 0
594 -602 623 -624 0
-594 -602 623 -892 0
602 -623 0
594 -623 624 0
-594 -623 892 0
-591 624 -891 0
591 -618 624 0
-591 -624 891 0
591 618 -624 0
-614 -624 625 0
614 -625 0
624 -625 0
626 627 -572 0
572 -626 0
-626 -627 0
630 633 627 0
563 627 630 0
-628 633 -563 627 0
-627 -633 -563 0
563 -627 -630 0
-627 628 -630 0
628 -629 888 0
-628 -888 0
-628 629 0
629 -880 882 0
-629 880 0
-629 -882 0
630 -631 -710 0
-630 710 0
-630 631 0
631 -1058 1280 0
631 632 1280 0
631 -751 1280 0
-631 -1280 0
-631 -632 751 1058 0
632 1059 1060 1061 1062 0
-632 -1062 0
-632 -1061 0
-632 -1059 0
-632 -1060 0
631 633 634 -886 0
629 631 633 634 0
-633 -634 0
-631 -633 0
-629 -633 886 0
-559 634 880 0
634 709 880 969 0
-634 -880 0
-634 -709 559 0
-634 -969 559 0
635 -636 1133 0
635 636 -1133 0
-635 -636 -1133 0
-635 636 1133 0
-629 636 -574 -563 573 0
629 -636 0
563 -636 0
574 -636 0
-573 -636 0
637 -638 -645 0
637 640 -643 -645 0
-637 645 0
638 -640 -637 0
638 643 -637 0
-591 638 -1079 0
638 -639 -1079 0
-638 1079 0
591 -638 639 0
-594 639 -702 781 0
-639 702 0
-639 -781 0
594 -639 0
640 -642 751 -1058 0
640 641 751 1058 0
-640 -751 0
-640 642 -1058 0
-640 -641 1058 0
641 -750 -558 0
-641 750 0
558 -641 0
-588 642 907 0
588 641 642 0
-588 -642 -907 0
588 -641 -642 0
643 644 575 0
-596 642 575 643 0
-575 -643 0
596 -643 -644 0
-642 -643 -644 0
644 700 -751 0
597 644 -751 0
-644 751 0
-597 -644 -700 0
-639 645 -810 0
645 1079 -810 0
645 -646 -810 0
-645 810 0
639 646 -645 -1079 0
-592 646 -701 0
591 -592 646 0
592 -646 0
-591 -646 701 0
647 -648 -658 -1148 0
647 648 -658 1148 0
-647 658 0
-647 648 -1148 0
-647 -648 1148 0
648 -649 -810 0
648 657 -810 0
-648 810 0
-648 649 -657 0
594 -602 649 -650 0
-594 -602 649 -901 0
602 -649 0
594 -649 650 0
-594 -649 901 0
-591 650 -900 0
591 650 -651 0
-591 -650 900 0
591 -650 651 0
651 652 575 656 0
651 652 575 -655 0
-575 -651 0
-651 -652 0
-651 655 -656 0
652 654 751 -1058 0
652 653 751 1058 0
-652 -751 0
-652 -654 -1058 0
-652 -653 1058 0
653 -897 -558 0
-653 897 0
558 -653 0
-588 654 -898 0
588 -653 654 0
-588 -654 898 0
588 653 -654 0
-596 -654 655 0
596 -655 0
654 -655 0
597 656 -751 0
656 -751 899 0
-656 751 0
-597 -656 -899 0
650 657 -1079 0
614 651 657 0
650 651 657 0
614 657 -1079 0
-614 -650 -657 0
-651 -657 1079 0
658 -659 669 1162 0
658 -659 -669 -1162 0
-658 659 0
-658 669 -1162 0
-658 -669 1162 0
617 659 -660 0
659 721 -660 0
-659 660 0
-617 -659 -721 0
660 -661 -810 0
660 668 -810 0
-660 810 0
661 -668 -660 0
594 -602 661 -662 0
-594 -602 661 -896 0
602 -661 0
594 -661 662 0
-594 -661 896 0
-591 662 -895 0
591 662 -663 0
-591 -662 895 0
591 -662 663 0
663 664 575 667 0
663 664 575 -666 0
-575 -663 0
-663 -664 0
-663 666 -667 0
664 665 751 -1058 0
558 664 751 1058 0
-664 -751 0
-664 -665 -1058 0
-664 1058 -558 0
588 665 -558 0
-588 665 -893 0
558 588 -665 0
-588 -665 893 0
-596 -665 666 0
596 -666 0
665 -666 0
597 667 -751 0
667 -751 894 0
-667 751 0
-597 -667 -894 0
662 668 -1079 0
614 663 668 0
662 663 668 0
614 668 -1079 0
-614 -662 -668 0
-663 -668 1079 0
669 670 -810 0
-669 810 0
-669 -670 0
590 670 -676 0
670 -671 -676 0
670 -674 -676 0
-670 676 0
-590 -670 671 674 0
671 673 751 -1058 0
671 672 751 1058 0
-671 -751 0
-671 -673 -1058 0
-671 -672 1058 0
672 -703 -558 0
-672 703 0
558 -672 0
-588 673 -704 0
588 -672 673 0
-588 -673 704 0
588 672 -673 0
674 675 705 -751 0
597 674 675 -751 0
-674 751 0
-674 -675 0
-597 -674 -705 0
-596 -673 675 0
596 -675 0
673 -675 0
594 676 677 0
602 676 677 0
676 677 707 0
-676 -677 0
-594 -602 -676 -707 0
-591 -601 677 -706 0
-677 706 0
591 -677 0
601 -677 0
679 -557 678 0
-604 1751 678 -557 0
604 -1751 678 -557 0
557 -678 0
604 -678 -679 1751 0
-604 -678 -679 -1751 0
648 679 -680 -681 1729 0
-648 679 -680 -681 -1729 0
-679 681 0
648 -1729 -679 0
-679 680 0
-648 1729 -679 0
680 -637 -660 -626 0
626 -680 0
637 -680 0
660 -680 0
616 681 -682 -683 1302 0
-616 681 -682 -683 -1302 0
-681 683 0
616 -1302 -681 0
-681 682 0
-616 1302 -681 0
669 682 1734 1743 0
-584 -669 682 -1743 0
-669 682 1734 -1743 0
-584 669 682 1743 0
-669 1743 -682 0
669 -1743 -682 0
584 -1734 -682 0
584 -636 683 1714 0
636 683 -1714 -1734 0
-636 683 1714 -1734 0
584 636 683 -1714 0
-636 -1714 -683 0
636 1714 -683 0
-584 1734 -683 0
-648 684 -557 0
658 684 -557 0
582 684 -557 0
557 -684 0
-582 648 -658 -684 0
670 685 -557 0
582 685 -557 0
659 685 -557 0
557 -685 0
-582 -659 -670 -685 0
-584 686 -557 0
686 687 -557 0
557 -686 0
584 -686 -687 0
-603 -659 687 0
603 -687 0
659 -687 0
-604 688 -557 0
688 689 -557 0
615 688 -557 0
557 -688 0
604 -615 -688 -689 0
-659 689 -637 0
637 -689 0
659 -689 0
-616 690 -557 0
690 691 -557 0
557 -690 0
616 -690 -691 0
-635 691 -680 0
635 -691 0
680 -691 0
680 692 -557 0
636 692 -557 0
557 -692 0
-636 -692 -680 0
680 693 -557 0
557 -693 0
-680 -693 0
658 694 -557 0
582 694 -557 0
648 694 -557 0
557 -694 0
-582 -648 -658 -694 0
-583 695 -557 0
687 695 -557 0
-670 695 -557 0
557 -695 0
583 670 -687 -695 0
687 696 -557 0
584 696 -557 0
557 -696 0
-584 -687 -696 0
689 697 -557 0
604 697 -557 0
615 697 -557 0
557 -697 0
-604 -615 -689 -697 0
691 698 -557 0
616 698 -557 0
557 -698 0
-616 -691 -698 0
-636 699 -557 0
680 699 -557 0
557 -699 0
636 -699 -680 0
1 556 0
-1 -556 0
2 556 0
-2 -556 0
3 678 0
-3 -678 0
100 -684 0
-100 684 0
101 -685 0
-101 685 0
102 -686 0
-102 686 0
103 -688 0
-103 688 0
105 -690 0
-105 690 0
115 -692 0
-115 692 0
181 -693 0
-181 693 0
376 -694 0
-376 694 0
377 -695 0
-377 695 0
378 -696 0
-378 696 0
379 -697 0
-379 697 0
381 -698 0
-381 698 0
391 -699 0
-391 699 0
457 -693 0
-457 693 0
-100 -376 1959 0
100 -1959 0
376 -1959 0
100 -1148 0
-100 1148 0
-101 -377 1960 0
101 -1960 0
377 -1960 0
101 -1162 0
-101 1162 0
-102 -378 1961 0
102 -1961 0
378 -1961 0
102 -1153 0
-102 1153 0
-103 -379 1962 0
103 -1962 0
379 -1962 0
103 -1170 0
-103 1170 0
-105 -381 1964 0
105 -1964 0
381 -1964 0
105 -721 0
-105 721 0
-115 -391 1974 0
115 -1974 0
391 -1974 0
115 -1133 0
-115 1133 0
-181 -457 2040 0
181 -2040 0
457 -2040 0
181 -1190 0
-181 1190 0
-1 0
-2 0
3 0
4 0
5 0
6 0
7 0
8 0
9 0
10 0
11 0
12 0
13 0
14 0
15 0
16 0
17 0
18 0
19 0
20 0
21 0
22 0
23 0
24 0
25 0
26 0
27 0
28 0
29 0
30 0
31 0
32 0
33 0
34 0
35 0
36 0
37 0
38 0
39 0
40 0
41 0
42 0
43 0
44 0
45 0
46 0
47 0
48 0
49 0
50 0
51 0
52 0
53 0
54 0
55 0
56 0
57 0
58 0
59 0
60 0
61 0
62 0
63 0
64 0
65 0
66 0
67 0
68 0
69 0
70 0
71 0
72 0
73 0
74 0
75 0
76 0
77 0
78 0
79 0
80 0
81 0
82 0
83 0
84 0
85 0
86 0
87 0
88 0
89 0
90 0
91 0
92 0
93 0
94 0
95 0
96 0
97 0
98 0
99 0
104 0
106 0
107 0
108 0
109 0
110 0
111 0
112 0
113 0
114 0
116 0
117 0
118 0
119 0
120 0
121 0
122 0
123 0
124 0
125 0
126 0
-127 0
128 0
129 0
130 0
131 0
132 0
133 0
134 0
135 0
136 0
137 0
138 0
139 0
140 0
141 0
142 0
143 0
144 0
145 0
146 0
147 0
148 0
149 0
150 0
151 0
152 0
153 0
154 0
155 0
156 0
157 0
158 0
159 0
160 0
161 0
162 0
163 0
164 0
165 0
166 0
167 0
168 0
169 0
170 0
171 0
172 0
173 0
174 0
175 0
176 0
177 0
178 0
179 0
180 0
-181 0
182 0
183 0
184 0
185 0
186 0
187 0
188 0
189 0
-190 0
191 0
192 0
193 0
194 0
195 0
196 0
197 0
198 0
199 0
200 0
201 0
202 0
203 0
204 0
205 0
206 0
207 0
208 0
209 0
210 0
211 0
212 0
213 0
214 0
215 0
216 0
217 0
218 0
-219 0
220 0
221 0
222 0
223 0
224 0
225 0
226 0
227 0
228 0
229 0
230 0
231 0
232 0
233 0
234 0
235 0
236 0
237 0
238 0
239 0
240 0
241 0
242 0
243 0
244 0
245 0
246 0
247 0
248 0
249 0
250 0
251 0
252 0
253 0
254 0
255 0
256 0
257 0
258 0
259 0
260 0
261 0
262 0
263 0
264 0
265 0
266 0
267 0
268 0
269 0
270 0
271 0
272 0
273 0
274 0
275 0
276 0
277 0
278 0
279 0
-280 0
-281 0
-282 0
-283 0
-284 0
-285 0
-286 0
-287 0
-288 0
-289 0
-290 0
-291 0
-292 0
-293 0
-294 0
-295 0
-296 0
-297 0
-298 0
-299 0
-300 0
-301 0
-302 0
-303 0
-304 0
-305 0
-306 0
-307 0
-308 0
-309 0
-310 0
-311 0
-312 0
-313 0
-314 0
-315 0
-316 0
-317 0
-318 0
-319 0
-320 0
-321 0
-322 0
-323 0
-324 0
-325 0
-326 0
-327 0
-328 0
-329 0
-330 0
-331 0
-332 0
-333 0
-334 0
-335 0
-336 0
-337 0
-338 0
-339 0
-340 0
-341 0
-342 0
-343 0
-344 0
-345 0
-346 0
-347 0
-348 0
-349 0
-350 0
-351 0
-352 0
-353 0
-354 0
-355 0
-356 0
-357 0
-358 0
-359 0
-360 0
-361 0
-362 0
-363 0
-364 0
-365 0
-366 0
-367 0
-368 0
-369 0
-370 0
-371 0
-372 0
-373 0
-374 0
-375 0
-380 0
-382 0
-383 0
-384 0
-385 0
-386 0
-387 0
-388 0
-389 0
-390 0
-392 0
-393 0
-394 0
-395 0
-396 0
-397 0
-398 0
-399 0
-400 0
-401 0
-402 0
403 0
-404 0
-405 0
-406 0
-407 0
-408 0
-409 0
-410 0
-411 0
-412 0
-413 0
-414 0
-415 0
-416 0
-417 0
-418 0
-419 0
-420 0
-421 0
-422 0
-423 0
-424 0
-425 0
-426 0
-427 0
-428 0
-429 0
-430 0
-431 0
-432 0
-433 0
-434 0
-435 0
-436 0
-437 0
-438 0
-439 0
-440 0
-441 0
-442 0
-443 0
-444 0
-445 0
-446 0
-447 0
-448 0
-449 0
-450 0
-451 0
-452 0
-453 0
-454 0
-455 0
-456 0
-457 0
-458 0
-459 0
-460 0
-461 0
-462 0
-463 0
-464 0
-465 0
466 0
-467 0
-468 0
-469 0
-470 0
-471 0
-472 0
-473 0
-474 0
-475 0
-476 0
-477 0
-478 0
-479 0
-480 0
-481 0
-482 0
-483 0
-484 0
-485 0
-486 0
-487 0
-488 0
-489 0
-490 0
-491 0
-492 0
-493 0
-494 0
495 0
-496 0
-497 0
-498 0
-499 0
-500 0
-501 0
-502 0
-503 0
-504 0
-505 0
-506 0
-507 0
-508 0
-509 0
-510 0
-511 0
-512 0
-513 0
-514 0
-515 0
-516 0
-517 0
-518 0
-519 0
-520 0
-521 0
-522 0
-523 0
-524 0
-525 0
-526 0
-527 0
-528 0
-529 0
-530 0
-531 0
-532 0
-533 0
-534 0
-535 0
-536 0
-537 0
-538 0
-539 0
-540 0
-541 0
-542 0
-543 0
-544 0
-545 0
-546 0
-547 0
-548 0
-549 0
-550 0
-551 0
-552 0
-553 0
-554 0
-555 0
556 0
557 0
558 0
-559 0
563 0
-564 0
-568 0
572 0
-573 0
574 0
-575 0
581 0
626 0
-627 0
637 0
645 0
660 0
-678 0
679 0
680 0
681 0
682 0
683 0
-693 0
-716 0
717 0
718 0
719 0
720 0
722 0
723 0
724 0
725 0
726 0
727 0
728 0
729 0
730 0
731 0
732 0
733 0
734 0
735 0
736 0
737 0
738 0
739 0
740 0
741 0
742 0
743 0
744 0
745 0
746 0
747 0
748 0
763 0
810 0
951 0
973 0
974 0
975 0
976 0
977 0
978 0
979 0
980 0
981 0
982 0
983 0
984 0
985 0
986 0
987 0
988 0
989 0
990 0
991 0
992 0
993 0
994 0
995 0
996 0
997 0
998 0
999 0
1000 0
1001 0
1002 0
-1003 0
1004 0
1005 0
1006 0
1007 0
1008 0
1009 0
1010 0
1011 0
1012 0
1013 0
1014 0
1015 0
1016 0
1017 0
1018 0
1019 0
1020 0
1021 0
1022 0
1023 0
1024 0
1025 0
1026 0
1027 0
1028 0
1029 0
1030 0
-1031 0
1032 0
1033 0
1034 0
1035 0
1036 0
1037 0
1038 0
1039 0
1040 0
1041 0
1042 0
1043 0
1085 0
1086 0
1087 0
1088 0
1089 0
1090 0
1091 0
1092 0
1093 0
1094 0
1095 0
1096 0
1097 0
1098 0
1099 0
1100 0
1101 0
1102 0
1103 0
1104 0
1105 0
1106 0
1107 0
1108 0
1109 0
1110 0
1111 0
1112 0
1113 0
1114 0
1115 0
1116 0
1117 0
1118 0
1119 0
1120 0
1121 0
1122 0
1123 0
1124 0
1125 0
1126 0
1127 0
1128 0
1129 0
1130 0
1131 0
1132 0
1134 0
1135 0
1136 0
1137 0
1138 0
1139 0
1140 0
1141 0
1142 0
1143 0
1144 0
1145 0
1146 0
1147 0
1149 0
1150 0
1151 0
1152 0
1154 0
1155 0
1156 0
1157 0
1158 0
1159 0
1160 0
1161 0
1163 0
1164 0
1165 0
1166 0
1167 0
1168 0
1169 0
1171 0
1172 0
1173 0
1174 0
1175 0
1176 0
1177 0
1178 0
1179 0
1180 0
1181 0
1182 0
1183 0
1184 0
1185 0
1186 0
1187 0
1188 0
1189 0
-1190 0
1191 0
1192 0
1193 0
1194 0
1195 0
1196 0
1197 0
1198 0
1199 0
1200 0
1201 0
1202 0
1203 0
1204 0
1205 0
1206 0
1207 0
1208 0
1209 0
1210 0
1211 0
1212 0
1213 0
1214 0
1215 0
1216 0
1217 0
1218 0
1219 0
1220 0
1221 0
1222 0
1223 0
1224 0
1225 0
1226 0
1227 0
1228 0
1229 0
1230 0
1231 0
1232 0
1233 0
1234 0
1235 0
1236 0
1237 0
1238 0
1239 0
1240 0
1241 0
1242 0
1243 0
1244 0
1245 0
1246 0
1247 0
1248 0
1249 0
1250 0
1251 0
1252 0
1253 0
1254 0
1255 0
1256 0
1862 0
-1863 0
-1864 0
-1865 0
-1866 0
-1867 0
-1868 0
-1869 0
-1870 0
-1871 0
-1872 0
-1873 0
-1874 0
-1875 0
-1876 0
-1877 0
-1878 0
-1879 0
-1880 0
-1881 0
-1882 0
-1883 0
-1884 0
-1885 0
-1886 0
-1887 0
-1888 0
-1889 0
-1890 0
-1891 0
-1892 0
-1893 0
-1894 0
-1895 0
-1896 0
-1897 0
-1898 0
-1899 0
-1900 0
-1901 0
-1902 0
-1903 0
-1904 0
-1905 0
-1906 0
-1907 0
-1908 0
-1909 0
-1910 0
-1911 0
-1912 0
-1913 0
-1914 0
-1915 0
-1916 0
-1917 0
-1918 0
-1919 0
-1920 0
-1921 0
-1922 0
-1923 0
-1924 0
-1925 0
-1926 0
-1927 0
-1928 0
-1929 0
-1930 0
-1931 0
-1932 0
-1933 0
-1934 0
-1935 0
-1936 0
-1937 0
-1938 0
-1939 0
-1940 0
-1941 0
-1942 0
-1943 0
-1944 0
-1945 0
-1946 0
-1947 0
-1948 0
-1949 0
-1950 0
-1951 0
-1952 0
-1953 0
-1954 0
-1955 0
-1956 0
-1957 0
-1958 0
-1963 0
-1965 0
-1966 0
-1967 0
-1968 0
-1969 0
-1970 0
-1971 0
-1972 0
-1973 0
-1975 0
-1976 0
-1977 0
-1978 0
-1979 0
-1980 0
-1981 0
-1982 0
-1983 0
-1984 0
-1985 0
-1986 0
-1987 0
-1988 0
-1989 0
-1990 0
-1991 0
-1992 0
-1993 0
-1994 0
-1995 0
-1996 0
-1997 0
-1998 0
-1999 0
-2000 0
-2001 0
-2002 0
-2003 0
-2004 0
-2005 0
-2006 0
-2007 0
-2008 0
-2009 0
-2010 0
-2011 0
-2012 0
-2013 0
-2014 0
-2015 0
-2016 0
-2017 0
-2018 0
-2019 0
-2020 0
-2021 0
-2022 0
-2023 0
-2024 0
-2025 0
-2026 0
-2027 0
-2028 0
-2029 0
-2030 0
-2031 0
-2032 0
-2033 0
-2034 0
-2035 0
-2036 0
-2037 0
-2038 0
-2039 0
-2040 0
-2041 0
-2042 0
-2043 0
-2044 0
-2045 0
-2046 0
-2047 0
-2048 0
-2049 0
-2050 0
-2051 0
-2052 0
-2053 0
-2054 0
-2055 0
-2056 0
-2057 0
-2058 0
-2059 0
-2060 0
-2061 0
-2062 0
-2063 0
-2064 0
-2065 0
-2066 0
-2067 0
-2068 0
-2069 0
-2070 0
-2071 0
-2072 0
-2073 0
-2074 0
-2075 0
-2076 0
-2077 0
-2078 0
-2079 0
-2080 0
-2081 0
-2082 0
-2083 0
-2084 0
-2085 0
-2086 0
-2087 0
-2088 0
-2089 0
-2090 0
-2091 0
-2092 0
-2093 0
-2094 0
-2095 0
-2096 0
-2097 0
-2098 0
-2099 0
-2100 0
-2101 0
-2102 0
-2103 0
-2104 0
-2105 0
-2106 0
-2107 0
-2108 0
-2109 0
-2110 0
-2111 0
-2112 0
-2113 0
-2114 0
-2115 0
-2116 0
-2117 0
-2118 0
-2119 0
-2120 0
-2121 0
-2122 0
-2123 0
-2124 0
-2125 0
-2126 0
-2127 0
-2128 0
-2129 0
-2130 0
-2131 0
-2132 0
-2133 0
-2134 0
-2135 0
-2136 0
-2137 0
-2138 0
-1465 0
-1466 0
-1467 0
-1468 0
-1469 0
-1470 0
-1471 0
-1472 0
-1473 0
-1474 0
-1475 0
-1476 0
-1477 0
-1478 0
-1332 0
-1479 0
-1480 0
-1481 0
-1482 0
-1357 0
-1358 0
-1483 0
-1359 0
-1360 0
-1549 0
-1484 0
-1550 0
-1485 0
-1551 0
-1552 0
-1553 0
-1509 0
-1486 0
-1487 0
-1510 0
-1511 0
-1512 0
-1513 0
-1514 0
-1515 0
-1516 0
-1517 0
-1518 0
-1488 0
-1519 0
-1281 0
-1520 0
-1282 0
-1283 0
-1521 0
-1522 0
-1284 0
-1523 0
-1524 0
-1525 0
-1285 0
-1526 0
-1527 0
-1286 0
-1528 0
-1489 0
-1287 0
-1490 0
-1288 0
-1491 0
-1289 0
-1290 0
-1492 0
-1493 0
-1494 0
-1495 0
-1496 0
-1354 0
-1291 0
-1497 0
-1498 0
-1499 0
-1500 0
-1501 0
-1292 0
-1502 0
-1503 0
-1504 0
-1505 0
-1293 0
-1506 0
-1294 0
-1295 0
-1507 0
-1508 0
-1296 0
-1529 0
-1530 0
-1531 0
-1532 0
-1533 0
-1534 0
-1535 0
-1536 0
-1537 0
-1538 0
-1539 0
-1540 0
-1541 0
-1542 0
-1543 0
-1544 0
-1545 0
-1546 0
-1547 0
-1548 0
-1333 0
-1334 0
-1335 0
-1336 0
-1337 0
-1338 0
-1339 0
-1340 0
-1341 0
-1355 0
-1342 0
-1343 0
-1344 0
-1345 0
-1346 0
-1347 0
-1348 0
-1349 0
-1350 0
-1351 0
-1352 0
-1353 0
-1838 0
-1839 0
-1840 0
-1841 0
-1842 0
-1843 0
-1844 0
-1845 0
-1846 0
-1847 0
-1848 0
-1849 0
-1850 0
-1851 0
-1852 0
-1853 0
-1854 0
-1855 0
-1856 0
-1857 0
-1858 0
-1859 0
-1860 0
-1861 0
-1402 0
-1403 0
-1404 0
-1405 0
-1330 0
-1406 0
-1407 0
-1408 0
-1409 0
-1410 0
-1411 0
-1412 0
-1413 0
-1414 0
-1415 0
-1416 0
-1417 0
-1418 0
-1419 0
-1420 0
-1421 0
-1422 0
-1423 0
-1424 0
-1425 0
-1426 0
-1427 0
-1428 0
-1429 0
-1430 0
-1431 0
-1432 0
-1433 0
-1434 0
-1435 0
-1436 0
-1437 0
-1438 0
-1439 0
-1440 0
-1441 0
-1442 0
-1625 0
-1626 0
-1627 0
-1628 0
-1629 0
-1630 0
-1631 0
-1632 0
-1633 0
-1634 0
-1635 0
-1636 0
-1637 0
-1638 0
-1639 0
-1640 0
-1641 0
-1642 0
-1643 0
-1644 0
-1645 0
-1646 0
-1647 0
-1648 0
-1649 0
-1650 0
-1651 0
-1652 0
-1653 0
-1654 0
-1655 0
-1656 0
-1657 0
-1658 0
-1331 0
-1659 0
-1660 0
-1661 0
-1662 0
-1663 0
-1664 0
-1665 0
-1361 0
-1362 0
-1363 0
-1364 0
-1365 0
-1366 0
-1367 0
-1368 0
-1369 0
-1370 0
-1371 0
-1372 0
-1373 0
-1374 0
-1375 0
-1376 0
-1377 0
-1378 0
-1379 0
-1380 0
-1381 0
-1382 0
-1383 0
-1384 0
-1385 0
-1386 0
-1387 0
-1388 0
-1389 0
-1390 0
-1391 0
-1392 0
-1356 0
-1393 0
-1394 0
-1395 0
-1396 0
-1397 0
-1398 0
-1399 0
-1400 0
-1401 0
-1443 0
-1444 0
-1445 0
-1446 0
-1447 0
-1448 0
-1449 0
-1450 0
-1451 0
-1452 0
-1453 0
-1454 0
-1455 0
-1456 0
-1457 0
-1458 0
-1459 0
-1460 0
-1461 0
-1462 0
-1463 0
-1464 0

